(set-logic ALL)
(set-option :produce-models true)
(declare-sort BoundSet 0)
(declare-sort UnboundSet 0)
(declare-fun IsInRedShirt (BoundSet) Bool)
(declare-fun IsFilmedBy (BoundSet BoundSet) Bool)
(declare-fun IsOnSportsField (BoundSet BoundSet) Bool)
(declare-fun HasHugeAudience (BoundSet BoundSet) Bool)
(declare-fun IsWatching (BoundSet BoundSet) Bool)
(declare-fun IsCheering (BoundSet BoundSet) Bool)
(assert (not (=> (exists ((a BoundSet)) (exists ((e BoundSet)) (exists ((c BoundSet)) (exists ((b BoundSet)) (exists ((d BoundSet)) (and (IsInRedShirt b) (and (IsFilmedBy b a) (and (IsOnSportsField b c) (and (HasHugeAudience c d) (and (IsWatching e d) (IsCheering e d))))))))))) (exists ((a BoundSet)) (exists ((f BoundSet)) (and (IsInRedShirt f) (IsFilmedBy f a)))))))
(check-sat)
(get-model)